NAME 
ROWS
 N  OBJ
 L  R0      
 E  R1      
 E  R2      
 E  R3      
 E  R4      
 E  R5      
COLUMNS
    MARKER    'MARKER'                 'INTORG'
    I0(2)     OBJ       -72
    I0(2)     R0        194
    I0(2)     R5        1
    I1(3)     OBJ       -6
    I1(3)     R0        -137
    I1(3)     R3        9
    I1(3)     R5        1
    I2(4)     OBJ       184
    I2(4)     R0        -16
    I2(4)     R1        2
    I2(4)     R3        8
    I2(4)     R5        1
    MARKER    'MARKER'                 'INTEND'
    C3(3)     OBJ       -1
    C3(3)     R0        2
    C3(3)     R1        10
    C3(3)     R2        4
    C4(3)     OBJ       9
    C4(3)     R0        -10
    C4(3)     R1        1
    C4(3)     R3        7
    C5(1)     R1        1
    C6(1)     R2        1
    C7(1)     R3        1
    C8(1)     R4        1
    C9(1)     R5        1
RHS
    RHS1      R0        208.4
    RHS1      R1        72
    RHS1      R2        86
    RHS1      R3        91
    RHS1      R4        74
    RHS1      R5        1
BOUNDS
 UP BND1      I0(2)     2
 UP BND1      I1(3)     2
 UP BND1      I2(4)     2
ENDATA
